7 18
0 0 0 0
1 10 100 30
2 20 20 60
3 50 50 40
4 60 -10 20
5 90 50 10
100 100 100 0
0 1 70 70
0 2 60 60
0 3 50 50
0 4 90 90
0 5 50 50
1 3 70 70
1 4 80 80
1 5 30 30
1 100 50 50
2 3 80 80
2 4 60 60
2 100 60 60
3 4 90 90
3 100 70 70
4 3 80 80
4 5 100 100
4 100 60 60
5 100 70 70
